;; ===================== PROJECTED CANON (QE) =====================
;; Each clause below is entailed by Proj = ∃W.F over the canonical vocabulary.
;; Units appear first for clarity; OR-clauses (SAT-filtered) follow.
;; ==================================================================

;; Unit Bool constraints (entailed)
(assert (not patient_has_finding_of_angioedema_inthehistory))
(assert (not patient_has_diagnosis_of_asthma_inthehistory))
(assert (not patient_has_diagnosis_of_chronic_lung_disease_inthehistory))
(assert (not patient_has_finding_of_congenital_laryngeal_stridor_inthehistory))
(assert (not patient_has_diagnosis_of_disorder_of_immune_function_inthehistory))
(assert (not patient_has_diagnosis_of_epiglottitis_inthehistory))
(assert (not patient_has_finding_of_varicella_inthepast21days))
(assert (not patient_has_undergone_clinical_trial_inthepast4weeks))
